% Data for perfect square placement problem:
% http://www.hakank.org/minizinc/perfect_square_placement.mzn
% Data is originally from CSPLib:
% http://www.cs.st-andrews.ac.uk/~ianm/CSPLib/prob/prob009/results

% problem 192 
n = 580;
size = 25;
a = [5,6,11,13,16,17,21,25,34,44,54,68,80,88,100,112,120,135,142,145,170,173,195,215,265];

